Solver command line: ['/usr/local/bin/gurobi.sh']

Set parameter WLSAccessID
Set parameter WLSSecret
Set parameter LicenseID to value 2606900
Academic license 2606900 - for non-commercial use only - registered to so___@htwk-leipzig.de
Read LP format model from file /var/folders/jf/5sh4zzv94dxbcz8g7tg2jq5h0000gn/T/tmp10gl70lw.pyomo.lp
Reading time = 2.23 seconds
objective: 967944 rows, 875999 columns, 2133006 nonzeros
Set parameter MIPGap to value 0.02
Gurobi Optimizer version 12.0.1 build v12.0.1rc0 (mac64[rosetta2] - Darwin 24.4.0 24E263)

CPU model: Apple M3
Thread count: 8 physical cores, 8 logical processors, using up to 8 threads

Non-default parameters:
MIPGap  0.02

Academic license 2606900 - for non-commercial use only - registered to so___@htwk-leipzig.de
Optimize a model with 967944 rows, 875999 columns and 2133006 nonzeros
Model fingerprint: 0x3ad13be5
Model has 8759 quadratic constraints
Variable types: 753360 continuous, 122639 integer (105120 binary)
Coefficient statistics:
  Matrix range     [6e-03, 2e+02]
  QMatrix range    [1e+00, 1e+00]
  Objective range  [1e-02, 5e+02]
  Bounds range     [1e+00, 3e+00]
  RHS range        [8e-05, 1e+04]
Presolve removed 774312 rows and 656082 columns
Presolve time: 0.48s
Presolved: 193632 rows, 219917 columns, 612600 nonzeros
Variable types: 145423 continuous, 74494 integer (65734 binary)
Performing another presolve...
Presolve removed 70079 rows and 70079 columns
Presolve time: 4.85s
Deterministic concurrent LP optimizer: primal and dual simplex
Showing primal log only...


Root simplex log...

Iteration    Objective       Primal Inf.    Dual Inf.      Time
       0    1.1931358e+08   9.158192e+05   5.138723e+13      6s
Concurrent spin time: 0.00s

Solved with dual simplex

Root simplex log...

Iteration    Objective       Primal Inf.    Dual Inf.      Time
   76557    1.1181568e+08   0.000000e+00   0.000000e+00      9s

Root relaxation: objective 1.118157e+08, 76557 iterations, 2.89 seconds (4.43 work units)
Total elapsed time = 8.95s (DegenMoves)

    Nodes    |    Current Node    |     Objective Bounds      |     Work
 Expl Unexpl |  Obj  Depth IntInf | Incumbent    BestBd   Gap | It/Node Time

     0     0 1.1182e+08    0  200          - 1.1182e+08      -     -    9s
     0     0 1.1182e+08    0  235          - 1.1182e+08      -     -   11s
H    0     0                    1.118813e+08 1.1182e+08  0.06%     -   12s

Cutting planes:
  Gomory: 92
  Cover: 97
  Implied bound: 47
  MIR: 79
  Flow cover: 80
  RLT: 46
  Relax-and-lift: 52

Explored 1 nodes (81793 simplex iterations) in 12.36 seconds (21.00 work units)
Thread count was 8 (of 8 available processors)

Solution count 1: 1.11881e+08 

Optimal solution found (tolerance 2.00e-02)
Best objective 1.118813443509e+08, best bound 1.118164958423e+08, gap 0.0580%

